Function: get_partitions took 3.314018249511719e-05 seconds
Function: map_flows_partitions took 5.0067901611328125e-06 seconds
Building model with:
2 devices, 10 partitions and 1 flows
Using license file /home/anup/gurobi.lic
Academic license - for non-commercial use only
Function: MIP.add_frac_mem_var took 0.00039458274841308594 seconds
Function: MIP.add_coverage_constraints took 0.0003101825714111328 seconds
Function: MIP.add_accuracy_constraints took 0.00041866302490234375 seconds
Function: MIP.add_capacity_constraints took 0.00035881996154785156 seconds
Changed value of parameter TimeLimit to 120.0
   Prev: inf  Min: 0.0  Max: inf  Default: inf
--------------------------------------------------
Starting model update
Model update took: 7.200241088867188e-05 s
--------------------------------------------------
Starting model optimize
Gurobi Optimizer version 9.0.0 build v9.0.0rc2 (linux64)
Optimize a model with 35 rows, 46 columns and 107 nonzeros
Model fingerprint: 0xb329a51d
Model has 1 general constraint
Variable types: 46 continuous, 0 integer (0 binary)
Coefficient statistics:
  Matrix range     [2e-02, 8e+00]
  Objective range  [1e+00, 1e+00]
  Bounds range     [1e+00, 3e+04]
  RHS range        [1e+00, 1e+00]

---------------------------------------------------------------------------
Multi-objectives: starting optimization with 2 objectives ... 
---------------------------------------------------------------------------

Multi-objectives: applying initial presolve ...
---------------------------------------------------------------------------

Presolve removed 19 rows and 20 columns
Presolve time: 0.00s
Presolved: 16 rows and 26 columns
---------------------------------------------------------------------------

Multi-objectives: optimize objective 1 (max_mem) ...
---------------------------------------------------------------------------

Presolve removed 10 rows and 17 columns
Presolve time: 0.00s
Presolved: 6 rows, 9 columns, 18 nonzeros
Variable types: 8 continuous, 1 integer (1 binary)

Root relaxation: objective 1.283594e+01, 4 iterations, 0.00 seconds

    Nodes    |    Current Node    |     Objective Bounds      |     Work
 Expl Unexpl |  Obj  Depth IntInf | Incumbent    BestBd   Gap | It/Node Time

*    0     0               0      12.8359375   12.83594  0.00%     -    0s

Explored 0 nodes (4 simplex iterations) in 0.00 seconds
Thread count was 8 (of 8 available processors)

Solution count 1: 12.8359 

Optimal solution found (tolerance 1.00e-04)
Best objective 1.283593750000e+01, best bound 1.283593750000e+01, gap 0.0000%
---------------------------------------------------------------------------

Multi-objectives: optimize objective 2 (tot_mem) ...
---------------------------------------------------------------------------


Loaded user MIP start with objective 25.6719

Presolve removed 10 rows and 17 columns
Presolve time: 0.00s
Presolved: 7 rows, 9 columns, 22 nonzeros
Variable types: 8 continuous, 1 integer (1 binary)

Root relaxation: cutoff, 2 iterations, 0.00 seconds

    Nodes    |    Current Node    |     Objective Bounds      |     Work
 Expl Unexpl |  Obj  Depth IntInf | Incumbent    BestBd   Gap | It/Node Time

     0     0     cutoff    0        25.67188   25.67188  0.00%     -    0s

Explored 0 nodes (2 simplex iterations) in 0.00 seconds
Thread count was 8 (of 8 available processors)

Solution count 1: 25.6719 

Optimal solution found (tolerance 1.00e-04)
Best objective 2.567187500000e+01, best bound 2.567187500000e+01, gap 0.0000%

---------------------------------------------------------------------------
Multi-objectives: solved in 0.00 seconds, solution count 1

Model optimize took: 0.0036268234252929688 seconds
--------------------------------------------------

Solution quality statistics for model Univmon :
  Maximum violation:
    Bound       : 0.00000000e+00
    Constraint  : 0.00000000e+00
    Integrality : 0.00000000e+00

Sketch (0) (cm: eps0: 0.3125, del0: 0.05, min_mem: 0.03515625)
Par: 1, Rows: 1
(0.000,0)    (1.000,1)    
Total frac: 1.000
Par: 2, Rows: 1
(1.000,1)    (0.000,0)    
Total frac: 1.000
Par: 3, Rows: 1
(1.000,1)    (0.000,0)    
Total frac: 1.000

Sketch (1) (cm: eps0: 0.00125, del0: 0.05, min_mem: 8.49609375)
Par: 1, Rows: 1
(0.496,1)    (0.504,0)    
Total frac: 1.000
Par: 2, Rows: 1
(0.504,0)    (0.496,1)    
Total frac: 1.000
Par: 3, Rows: 1
(0.496,1)    (0.504,0)    
Total frac: 1.000

Sketch (2) (cm: eps0: 0.625, del0: 0.025, min_mem: 0.01953125)
Par: 1, Rows: 1
(1.000,1)    (0.000,0)    
Total frac: 1.000
Par: 2, Rows: 1
(0.000,0)    (1.000,1)    
Total frac: 1.000
Par: 3, Rows: 1
(0.000,0)    (1.000,1)    
Total frac: 1.000
Par: 4, Rows: 1
(1.000,1)    (0.000,0)    
Total frac: 1.000

Device (0) CPU_1:
Rows total: 1.5108045977011493
Mem total: 12.8359375

Device (1) P4_1:
Rows total: 8.48919540229885
Mem total: 12.8359375
--------------------------------------------------
Changed value of parameter NonConvex to 2
   Prev: -1  Min: -1  Max: 2  Default: -1

Throughput: 93.33333333333333 Mpps, ns per packet: 10.714285714285715
Resources: 72.39128110205989
Used Cores: 6.999999999999998, Total CPUS: 1, Switch Memory: 12.8359375

Sketch (0) (cm: eps0: 0.3125, del0: 0.05, min_mem: 0.03515625)
Par: 1, Rows: 1
(0.000,0)    (1.000,1)    
Total frac: 1.000
Par: 2, Rows: 1
(1.000,1)    (0.000,0)    
Total frac: 1.000
Par: 3, Rows: 1
(1.000,1)    (0.000,0)    
Total frac: 1.000

Sketch (1) (cm: eps0: 0.00125, del0: 0.05, min_mem: 8.49609375)
Par: 1, Rows: 1
(0.496,1)    (0.504,0)    
Total frac: 1.000
Par: 2, Rows: 1
(0.504,0)    (0.496,1)    
Total frac: 1.000
Par: 3, Rows: 1
(0.496,1)    (0.504,0)    
Total frac: 1.000

Sketch (2) (cm: eps0: 0.625, del0: 0.025, min_mem: 0.01953125)
Par: 1, Rows: 1
(1.000,1)    (0.000,0)    
Total frac: 1.000
Par: 2, Rows: 1
(0.000,0)    (1.000,1)    
Total frac: 1.000
Par: 3, Rows: 1
(0.000,0)    (1.000,1)    
Total frac: 1.000
Par: 4, Rows: 1
(1.000,1)    (0.000,0)    
Total frac: 1.000

Device (0) CPU_1:
cores_sketch: 1.0, cores_dpdk: 5.999999999999998
Rows total: 1.5108045977011493
Mem total: 12.8359375
Throughput: 93.33333333333333

Device (1) P4_1:
Rows total: 8.48919540229885
Mem total: 12.8359375
Throughput: 148.0
--------------------------------------------------
Function: MIP.solve took 0.019832849502563477 seconds
Function: solve took 0.02011704444885254 seconds
